#Generated by Multiwfn (http://sobereva.com/multiwfn)
&GLOBAL
  PROJECT model
  PRINT_LEVEL MEDIUM
  RUN_TYPE ENERGY_FORCE
&END GLOBAL

&FORCE_EVAL
  METHOD Quickstep
  STRESS_TENSOR ANALYTICAL

  &SUBSYS
    &CELL
      A    20.00000000     0.00000000     0.00000000
      B     0.00000000    20.00000000     0.00000000
      C     0.00000000     0.00000000    20.00000000
      PERIODIC XYZ #Direction(s) of applied PBC (geometry aspect)
    &END CELL
    &COORD
      Ga         10.00000000   10.00000000   10.00000000
    &END COORD
    &KIND Ga
      ELEMENT Ga
      BASIS_SET DZVP-MOLOPT-SR-GTH-q13
      POTENTIAL GTH-PADE
    &END KIND
  &END SUBSYS

  &DFT
    BASIS_SET_FILE_NAME  /public/software/apps/cp2k/wangxh/cp2k-v2024.1/data/BASIS_MOLOPT
    POTENTIAL_FILE_NAME  /public/software/apps/cp2k/wangxh/cp2k-v2024.1/data/GTH_POTENTIALS
#   WFN_RESTART_FILE_NAME model-RESTART.wfn
    CHARGE    0 #Net charge
    MULTIPLICITY    2 #Spin multiplicity
    UKS
    &QS
      EPS_DEFAULT 1.0E-12 #Set all EPS_xxx to values such that the energy will be correct up to this value
    &END QS
    &POISSON
      PERIODIC XYZ #Direction(s) of PBC for calculating electrostatics
      PSOLVER PERIODIC #The way to solve Poisson equation
    &END POISSON
    &XC
      &XC_FUNCTIONAL Pade
      &END XC_FUNCTIONAL
    &END XC
    &MGRID
      CUTOFF  600
      REL_CUTOFF  60
    &END MGRID
    &SCF
      MAX_SCF 64
      EPS_SCF 1.0E-06 #Convergence threshold of density matrix of inner SCF
#     SCF_GUESS RESTART #Use wavefunction from WFN_RESTART_FILE_NAME file as initial guess
IGNORE_CONVERGENCE_FAILURE False #Continue calculation even if SCF not converged, works for version >= 2024.1
      &DIAGONALIZATION
        ALGORITHM STANDARD #Algorithm for diagonalization
      &END DIAGONALIZATION
      &MIXING #How to mix old and new density matrices
        METHOD BROYDEN_MIXING #PULAY_MIXING is also a good alternative
        ALPHA 0.3
        NBROYDEN 8 #Default is 4. Number of previous steps stored for the actual mixing scheme
      &END MIXING
      &SMEAR
        METHOD FERMI_DIRAC
        ELECTRONIC_TEMPERATURE 300 #Electronic temperature of Fermi-Dirac smearing in K
      &END SMEAR
      ADDED_MOS    30    30 #Number of virtual MOs to solve for alpha and beta spins
      &PRINT
        &RESTART OFF
          BACKUP_COPIES 0
        &END RESTART
      &END PRINT
    &END SCF
  &END DFT
  &PRINT
    &FORCES ON #Print atomic forces
    &END FORCES
    &STRESS_TENSOR ON
    &END STRESS_TENSOR
  &END PRINT
&END FORCE_EVAL
